(set-logic QF_AUFBV)
(declare-fun v2 () (_ BitVec 2))
(declare-fun v11 () (_ BitVec 1))
(declare-fun v12 () (_ BitVec 4))
(declare-fun v14 () (_ BitVec 1))
(declare-fun v16 () (_ BitVec 1))
(declare-fun bvlambda_1_ () (_ BitVec 1))
(declare-fun bvlambda_2_ () (_ BitVec 5))
(declare-fun bvlambda_3_ () (_ BitVec 1))
(declare-fun bvlambda_4_ () (_ BitVec 9))
(declare-fun bvlambda_5_ () (_ BitVec 1))
(declare-fun bvlambda_6_ () (_ BitVec 7))
(declare-fun bvlambda_7_ () (_ BitVec 1))
(declare-fun bvlambda_8_ () (_ BitVec 2))
(declare-fun bvlambda_9_ () (_ BitVec 1))
(declare-fun bvlambda_10_ () (_ BitVec 5))
(declare-fun bvlambda_11_ () (_ BitVec 4))
(declare-fun bvlambda_12_ () (_ BitVec 2))
(declare-fun bvlambda_13_ () (_ BitVec 1))
(declare-fun bvlambda_14_ () (_ BitVec 9))
(declare-fun bvlambda_15_ () (_ BitVec 4))
(declare-fun bvlambda_16_ () (_ BitVec 1))
(declare-fun bvlambda_17_ () (_ BitVec 2))
(declare-fun bvlambda_18_ () (_ BitVec 1))
(declare-fun bvlambda_19_ () (_ BitVec 4))
(declare-fun bvlambda_20_ () (_ BitVec 1))
(declare-fun bvlambda_21_ () (_ BitVec 6))
(declare-fun bvlambda_22_ () (_ BitVec 9))
(declare-fun bvlambda_23_ () (_ BitVec 3))
(declare-fun bvlambda_24_ () (_ BitVec 1))
(declare-fun bvlambda_25_ () (_ BitVec 2))
(declare-fun bvlambda_26_ () (_ BitVec 1))
(declare-fun bvlambda_27_ () (_ BitVec 2))
(declare-fun bvlambda_28_ () (_ BitVec 1))
(declare-fun bvlambda_29_ () (_ BitVec 2))
(declare-fun bvlambda_30_ () (_ BitVec 1))
(declare-fun bvlambda_31_ () (_ BitVec 14))
(declare-fun bvlambda_32_ () (_ BitVec 1))
(declare-fun bvlambda_33_ () (_ BitVec 1))
(declare-fun bvlambda_34_ () (_ BitVec 1))
(declare-fun bvlambda_35_ () (_ BitVec 2))
(declare-fun bvlambda_36_ () (_ BitVec 1))
(declare-fun bvlambda_37_ () (_ BitVec 5))
(declare-fun a70 () (Array (_ BitVec 15) (_ BitVec 4)))
(declare-fun a71 () (Array (_ BitVec 6) (_ BitVec 2)))
(declare-fun a72 () (Array (_ BitVec 1) (_ BitVec 6)))
(assert
(let (($e1 (_ bv0 1)))
(let (($e2 (_ bv20758 16)))
(let (($e3 (_ bv0 14)))
(let (($e4 (_ bv44778 16)))
(let (($e5 (_ bv0 9)))
(let (($e6 (_ bv0 10)))
(let (($e7 (_ bv0 12)))
(let (($e8 (_ bv0 2)))
(let (($e9 (_ bv0 4)))
(let (($e10 (_ bv0 16)))
(let (($e11 (_ bv44776 16)))
(let (($e12 (_ bv0 6)))
(let (($e13 (_ bv0 5)))
(let (($e14 (_ bv108 10)))
(let (($e15 (_ bv0 8)))
(let (($e16 (_ bv70 7)))
(let (($e17 (_ bv0 3)))
(let (($e18 (_ bv0 13)))
(let (($e19 (_ bv8190 13)))
(let (($e20 (_ bv2 2)))
(let (($e21 (_ bv0 11)))
(let (($e22 (_ bv65534 16)))
(let (($e23 (_ bv0 7)))
(let (($e24 (_ bv0 15)))
(let (($e25 (_ bv64346 16)))
(let (($e26 (_ bv510 9)))
(let (($e27 (_ bv62 6)))
(let (($e73 (concat $e12 bvlambda_26_)))
(let (($e74 (concat $e73 bvlambda_27_)))
(let (($e75 (concat bvlambda_34_ bvlambda_35_)))
(let (($e76 (concat $e75 bvlambda_36_)))
(let (($e77 (concat $e76 bvlambda_37_)))
(let (($e78 (bvand $e77 $e74)))
(let (($e79 (ite (= $e5 $e78) #b1 #b0)))
(let (($e80 (concat bvlambda_36_ bvlambda_37_)))
(let (($e81 (store a72 bvlambda_26_ $e80)))
(let (($e82 (select $e81 v11)))
(let (($e83 ((_ extract 1 1) $e82)))
(let (($e84 (concat $e17 (bvnot bvlambda_28_))))
(let (($e85 (concat $e84 (bvnot bvlambda_29_))))
(let (($e86 (store a72 $e1 bvlambda_21_)))
(let (($e87 (store $e86 bvlambda_3_ $e85)))
(let (($e88 (select $e87 $e83)))
(let (($e89 (select a72 v16)))
(let (($e90 (ite (bvult $e89 $e88) #b1 #b0)))
(let (($e91 (concat $e15 v11)))
(let (($e92 (ite (bvult $e77 $e91) #b1 #b0)))
(let (($e93 (concat bvlambda_9_ bvlambda_10_)))
(let (($e94 (concat $e93 bvlambda_11_)))
(let (($e95 (concat $e94 bvlambda_12_)))
(let (($e96 (concat $e95 (bvnot $e92))))
(let (($e97 (bvadd (bvnot $e19) (bvnot $e96))))
(let (($e98 (ite (= #b1 bvlambda_9_) $e97 $e96)))
(let (($e99 (concat $e9 bvlambda_34_)))
(let (($e100 (concat $e99 bvlambda_35_)))
(let (($e101 (concat $e100 bvlambda_36_)))
(let (($e102 (concat $e101 bvlambda_37_)))
(let (($e103 (bvurem $e102 $e98)))
(let (($e104 (bvadd $e96 $e103)))
(let (($e105 (ite (= $e18 $e103) #b1 #b0)))
(let (($e106 (bvand bvlambda_9_ (bvnot $e105))))
(let (($e107 (ite (= #b1 $e106) $e104 $e18)))
(let (($e108 (ite (= #b1 bvlambda_9_) $e18 $e103)))
(let (($e109 (bvand (bvnot $e108) (bvnot $e107))))
(let (($e110 ((_ extract 12 12) $e109)))
(let (($e111 (bvand bvlambda_9_ $e110)))
(let (($e112 (bvand (bvnot bvlambda_9_) (bvnot $e110))))
(let (($e113 (bvand (bvnot $e112) (bvnot $e111))))
(let (($e114 ((_ extract 11 0) $e109)))
(let (($e115 (ite (bvult (bvnot $e114) $e95) #b1 #b0)))
(let (($e116 (bvand $e115 $e113)))
(let (($e117 (bvand (bvnot $e112) (bvnot $e116))))
(let (($e118 (bvand $e117 $e90)))
(let (($e119 (concat bvlambda_16_ bvlambda_17_)))
(let (($e120 (concat $e119 bvlambda_18_)))
(let (($e121 (concat $e120 bvlambda_19_)))
(let (($e122 (concat bvlambda_14_ bvlambda_15_)))
(let (($e123 (concat $e6 bvlambda_26_)))
(let (($e124 (concat $e123 bvlambda_27_)))
(let (($e125 (concat (bvnot $e6) bvlambda_26_)))
(let (($e126 (concat $e125 bvlambda_27_)))
(let (($e127 (ite (= #b1 bvlambda_26_) $e126 $e124)))
(let (($e128 (bvmul (bvnot $e109) $e127)))
(let (($e129 (ite (bvult $e128 $e122) #b1 #b0)))
(let (($e130 (concat $e23 $e129)))
(let (($e131 (concat $e23 (bvnot bvlambda_13_))))
(let (($e132 (bvand $e131 $e130)))
(let (($e133 (concat (bvnot $e23) $e129)))
(let (($e134 (concat (bvnot $e23) (bvnot bvlambda_13_))))
(let (($e135 (bvand $e134 $e133)))
(let (($e136 (bvand (bvnot bvlambda_13_) $e129)))
(let (($e137 (ite (= #b1 $e136) (bvnot $e135) (bvnot $e132))))
(let (($e138 (ite (bvult $e137 $e121) #b1 #b0)))
(let (($e139 (concat bvlambda_17_ bvlambda_18_)))
(let (($e140 (concat $e139 bvlambda_19_)))
(let (($e141 (ite (bvult $e140 $e16) #b1 #b0)))
(let (($e142 (concat (bvnot $e13) (bvnot $e141))))
(let (($e143 (concat (bvnot $e13) (bvnot bvlambda_16_))))
(let (($e144 (bvand $e143 $e142)))
(let (($e145 (store $e87 bvlambda_24_ (bvnot $e144))))
(let (($e146 (select $e145 bvlambda_18_)))
(let (($e147 (concat (bvnot $e3) (bvnot $e92))))
(let (($e148 (concat $e3 (bvnot $e92))))
(let (($e149 (ite (= #b1 $e92) $e148 $e147)))
(let (($e150 (concat bvlambda_30_ bvlambda_30_)))
(let (($e151 (concat $e150 bvlambda_31_)))
(let (($e152 (concat bvlambda_1_ bvlambda_2_)))
(let (($e153 (concat $e152 bvlambda_3_)))
(let (($e154 (concat $e153 bvlambda_4_)))
(let (($e155 (bvand $e154 $e151)))
(let (($e156 (bvand (bvnot $e154) (bvnot $e151))))
(let (($e157 (bvand (bvnot $e156) (bvnot $e155))))
(let (($e158 (concat bvlambda_20_ bvlambda_21_)))
(let (($e159 (concat $e158 bvlambda_22_)))
(let (($e160 (bvand $e159 (bvnot $e157))))
(let (($e161 (bvand (bvnot $e159) $e157)))
(let (($e162 (bvand (bvnot $e161) (bvnot $e160))))
(let (($e163 ((_ extract 15 1) $e162)))
(let (($e164 (store a70 $e163 bvlambda_11_)))
(let (($e165 (select $e164 $e149)))
(let (($e166 (concat $e8 $e165)))
(let (($e167 (ite (bvult $e166 $e146) #b1 #b0)))
(let (($e168 (ite (= $e167 $e138) #b1 #b0)))
(let (($e169 (bvand $e168 (bvnot $e118))))
(let (($e170 (select $e87 bvlambda_7_)))
(let (($e171 (concat $e6 $e170)))
(let (($e172 (concat (bvnot $e6) $e170)))
(let (($e173 ((_ extract 5 5) $e170)))
(let (($e174 (ite (= #b1 $e173) $e172 $e171)))
(let (($e175 (ite (bvult (bvnot $e157) $e174) #b1 #b0)))
(let (($e176 (concat (bvnot $e8) (bvnot $e175))))
(let (($e177 (concat $e8 (bvnot $e175))))
(let (($e178 (ite (= #b1 $e175) $e177 $e176)))
(let (($e179 ((_ extract 2 2) $e178)))
(let (($e180 (ite (= bvlambda_28_ $e179) #b1 #b0)))
(let (($e181 ((_ extract 1 0) $e178)))
(let (($e182 (ite (bvult bvlambda_29_ $e181) #b1 #b0)))
(let (($e183 (bvand $e182 $e180)))
(let (($e184 (bvand bvlambda_28_ (bvnot $e179))))
(let (($e185 (bvand (bvnot $e184) (bvnot $e183))))
(let (($e186 (concat v16 v16)))
(let (($e187 (concat $e3 v2)))
(let (($e188 (bvadd (bvnot $e187) $e4)))
(let (($e189 ((_ extract 7 2) $e188)))
(let (($e190 (select a71 $e189)))
(let (($e191 (bvand (bvnot $e190) (bvnot $e186))))
(let (($e192 (concat (bvnot $e23) (bvnot $e191))))
(let (($e193 (concat $e23 (bvnot $e191))))
(let (($e194 ((_ extract 1 1) $e191)))
(let (($e195 (ite (= #b1 $e194) $e193 $e192)))
(let (($e196 ((_ extract 8 8) $e195)))
(let (($e197 (ite (= $e196 bvlambda_34_) #b1 #b0)))
(let (($e198 ((_ extract 7 0) $e195)))
(let (($e199 (concat bvlambda_35_ bvlambda_36_)))
(let (($e200 (concat $e199 bvlambda_37_)))
(let (($e201 (ite (bvult $e200 $e198) #b1 #b0)))
(let (($e202 (bvand $e201 $e197)))
(let (($e203 (bvand (bvnot $e196) bvlambda_34_)))
(let (($e204 (bvand (bvnot $e203) (bvnot $e202))))
(let (($e205 (bvand (bvnot $e204) (bvnot $e185))))
(let (($e206 (bvand (bvnot $e205) $e169)))
(let (($e207 (ite (= $e12 $e82) #b1 #b0)))
(let (($e208 (select a71 $e12)))
(let (($e209 (concat $e9 $e208)))
(let (($e210 (concat (bvnot $e9) $e208)))
(let (($e211 ((_ extract 1 1) $e208)))
(let (($e212 (ite (= #b1 $e211) $e210 $e209)))
(let (($e213 (ite (bvult $e212 $e82) #b1 #b0)))
(let (($e214 (concat $e24 $e213)))
(let (($e215 (concat (bvnot $e24) $e213)))
(let (($e216 (ite (= #b1 $e213) $e215 $e214)))
(let (($e217 (concat $e9 bvlambda_5_)))
(let (($e218 (concat $e217 bvlambda_6_)))
(let (($e219 (concat $e218 bvlambda_7_)))
(let (($e220 (concat $e219 bvlambda_8_)))
(let (($e221 (concat $e6 v14)))
(let (($e222 (concat (bvnot $e6) v14)))
(let (($e223 (ite (= #b1 v14) $e222 $e221)))
(let (($e224 (concat $e9 $e223)))
(let (($e225 (bvand $e224 $e220)))
(let (($e226 (concat (bvnot $e9) bvlambda_5_)))
(let (($e227 (concat $e226 bvlambda_6_)))
(let (($e228 (concat $e227 bvlambda_7_)))
(let (($e229 (concat $e228 bvlambda_8_)))
(let (($e230 (concat (bvnot $e9) $e223)))
(let (($e231 (bvand $e230 $e229)))
(let (($e232 ((_ extract 10 10) $e223)))
(let (($e233 (bvand $e232 bvlambda_5_)))
(let (($e234 (ite (= #b1 $e233) (bvnot $e231) (bvnot $e225))))
(let (($e235 ((_ extract 13 0) $e234)))
(let (($e236 (ite (= bvlambda_31_ $e235) #b1 #b0)))
(let (($e237 ((_ extract 14 14) $e234)))
(let (($e238 (ite (= bvlambda_30_ $e237) #b1 #b0)))
(let (($e239 (bvand $e238 $e236)))
(let (($e240 (concat $e24 $e239)))
(let (($e241 ((_ extract 15 8) $e188)))
(let (($e242 ((_ extract 7 0) $e188)))
(let (($e243 (concat $e242 $e241)))
(let (($e244 ((_ extract 0 0) $e89)))
(let (($e245 (ite (= #b1 $e244) $e243 $e240)))
(let (($e246 (ite (bvult $e245 $e216) #b1 #b0)))
(let (($e247 (bvand $e246 (bvnot $e207))))
(let (($e248 (bvand $e247 $e206)))
(let (($e249 (select $e145 (bvnot $e92))))
(let (($e250 (bvadd (bvnot $e27) (bvnot $e249))))
(let (($e251 ((_ extract 5 5) $e249)))
(let (($e252 (ite (= #b1 $e251) $e250 $e249)))
(let (($e253 (concat $e9 bvlambda_32_)))
(let (($e254 (concat $e253 bvlambda_33_)))
(let (($e255 (concat (bvnot $e9) bvlambda_32_)))
(let (($e256 (concat $e255 bvlambda_33_)))
(let (($e257 (ite (= #b1 bvlambda_32_) $e256 $e254)))
(let (($e258 (bvadd (bvnot $e27) (bvnot $e257))))
(let (($e259 ((_ extract 5 5) $e257)))
(let (($e260 (ite (= #b1 $e259) $e258 $e257)))
(let (($e261 (bvurem $e260 $e252)))
(let (($e262 (bvadd (bvnot $e27) (bvnot $e261))))
(let (($e263 (bvand $e251 $e259)))
(let (($e264 (ite (= #b1 $e263) $e262 $e12)))
(let (($e265 (bvadd $e249 $e261)))
(let (($e266 (bvand $e251 (bvnot $e259))))
(let (($e267 (ite (= $e12 $e261) #b1 #b0)))
(let (($e268 (bvand (bvnot $e267) $e266)))
(let (($e269 (ite (= #b1 $e268) $e265 $e12)))
(let (($e270 (bvand (bvnot $e269) (bvnot $e264))))
(let (($e271 (bvadd $e249 $e262)))
(let (($e272 (bvand (bvnot $e251) $e259)))
(let (($e273 (bvand $e272 (bvnot $e267))))
(let (($e274 (ite (= #b1 $e273) $e271 $e12)))
(let (($e275 (bvand (bvnot $e251) (bvnot $e259))))
(let (($e276 (ite (= #b1 $e275) $e261 $e12)))
(let (($e277 (bvand (bvnot $e276) (bvnot $e274))))
(let (($e278 (bvand $e277 $e270)))
(let (($e279 (concat (bvnot $e15) (bvnot $e278))))
(let (($e280 (concat $e15 (bvnot $e278))))
(let (($e281 ((_ extract 5 5) $e278)))
(let (($e282 (ite (= #b1 $e281) $e280 $e279)))
(let (($e283 (concat $e7 v12)))
(let (($e284 (bvlshr $e283  ((_ zero_extend 12) bvlambda_15_))))
(let (($e285 ((_ extract 13 0) $e284)))
(let (($e286 (ite (= $e5 bvlambda_14_) #b1 #b0)))
(let (($e287 (bvand (bvnot bvlambda_13_) $e286)))
(let (($e288 (ite (= #b1 $e287) $e285 $e3)))
(let (($e289 (ite (bvult $e288 $e282) #b1 #b0)))
(let (($e290 (bvand (bvnot $e289) (bvnot $e247))))
(let (($e291 (bvand (bvnot $e290) (bvnot $e248))))
(let (($e292 (concat $e9 bvlambda_9_)))
(let (($e293 (concat $e292 bvlambda_10_)))
(let (($e294 (concat $e293 bvlambda_11_)))
(let (($e295 (concat $e294 bvlambda_12_)))
(let (($e296 (concat (bvnot $e9) bvlambda_9_)))
(let (($e297 (concat $e296 bvlambda_10_)))
(let (($e298 (concat $e297 bvlambda_11_)))
(let (($e299 (concat $e298 bvlambda_12_)))
(let (($e300 (ite (= #b1 bvlambda_9_) $e299 $e295)))
(let (($e301 (bvurem $e295 (bvnot $e11))))
(let (($e302 (bvadd (bvnot $e2) $e301)))
(let (($e303 (ite (= $e10 $e301) #b1 #b0)))
(let (($e304 (ite (= #b1 $e303) $e10 $e302)))
(let (($e305 (ite (= $e304 $e300) #b1 #b0)))
(let (($e306 (select $e87 $e1)))
(let (($e307 (concat $e17 $e306)))
(let (($e308 (concat (bvnot $e17) $e306)))
(let (($e309 ((_ extract 5 5) $e306)))
(let (($e310 (ite (= #b1 $e309) $e308 $e307)))
(let (($e311 ((_ extract 8 8) $e310)))
(let (($e312 (ite (= bvlambda_36_ $e311) #b1 #b0)))
(let (($e313 (concat bvlambda_37_ bvlambda_34_)))
(let (($e314 (concat $e313 bvlambda_35_)))
(let (($e315 ((_ extract 7 0) $e310)))
(let (($e316 (ite (bvult $e315 $e314) #b1 #b0)))
(let (($e317 (bvand $e316 $e312)))
(let (($e318 (bvand (bvnot bvlambda_36_) $e311)))
(let (($e319 (bvand (bvnot $e318) (bvnot $e317))))
(let (($e320 (bvand $e319 $e305)))
(let (($e321 (concat $e5 bvlambda_23_)))
(let (($e322 (concat $e321 bvlambda_24_)))
(let (($e323 (concat $e322 bvlambda_25_)))
(let (($e324 (bvadd (bvnot $e2) $e187)))
(let (($e325 ((_ extract 14 0) $e324)))
(let (($e326 (ite (bvult $e325 $e323) #b1 #b0)))
(let (($e327 ((_ extract 15 15) $e324)))
(let (($e328 (bvand (bvnot $e327) (bvnot $e326))))
(let (($e329 (concat (bvnot $e21) (bvnot $e328))))
(let (($e330 (concat $e21 (bvnot $e328))))
(let (($e331 (ite (= #b1 $e328) $e330 $e329)))
(let (($e332 ((_ extract 1 0) $e331)))
(let (($e333 (ite (= bvlambda_12_ $e332) #b1 #b0)))
(let (($e334 ((_ extract 5 2) $e331)))
(let (($e335 (ite (= bvlambda_11_ $e334) #b1 #b0)))
(let (($e336 ((_ extract 10 6) $e331)))
(let (($e337 (ite (= bvlambda_10_ $e336) #b1 #b0)))
(let (($e338 ((_ extract 11 11) $e331)))
(let (($e339 (ite (= bvlambda_9_ $e338) #b1 #b0)))
(let (($e340 (bvand $e339 $e337)))
(let (($e341 (bvand $e340 $e335)))
(let (($e342 (bvand $e341 $e333)))
(let (($e343 (bvand $e342 $e320)))
(let (($e344 (concat $e15 v14)))
(let (($e345 (bvudiv $e344 $e77)))
(let (($e346 (concat $e13 v12)))
(let (($e347 (bvadd $e346 $e345)))
(let (($e348 (concat $e23 $e347)))
(let (($e349 (concat (bvnot $e23) $e347)))
(let (($e350 ((_ extract 8 8) $e347)))
(let (($e351 (ite (= #b1 $e350) $e349 $e348)))
(let (($e352 ((_ extract 15 15) $e351)))
(let (($e353 (ite (= bvlambda_20_ $e352) #b1 #b0)))
(let (($e354 (concat bvlambda_21_ bvlambda_22_)))
(let (($e355 ((_ extract 14 0) $e351)))
(let (($e356 (ite (bvult $e355 $e354) #b1 #b0)))
(let (($e357 (bvand $e356 $e353)))
(let (($e358 (bvand (bvnot bvlambda_20_) $e352)))
(let (($e359 (bvand (bvnot $e358) (bvnot $e357))))
(let (($e360 (bvand (bvnot $e359) $e343)))
(let (($e361 (concat $e13 bvlambda_5_)))
(let (($e362 (concat $e361 bvlambda_6_)))
(let (($e363 (concat $e362 bvlambda_7_)))
(let (($e364 (concat $e363 bvlambda_8_)))
(let (($e365 (concat $e24 (bvnot $e92))))
(let (($e366 (bvand $e365 $e364)))
(let (($e367 ((_ extract 15 15) $e366)))
(let (($e368 (ite (= bvlambda_1_ $e367) #b1 #b0)))
(let (($e369 (concat bvlambda_2_ bvlambda_3_)))
(let (($e370 (concat $e369 bvlambda_4_)))
(let (($e371 ((_ extract 14 0) $e366)))
(let (($e372 (ite (bvult $e371 $e370) #b1 #b0)))
(let (($e373 (bvand $e372 $e368)))
(let (($e374 (bvand (bvnot bvlambda_1_) $e367)))
(let (($e375 (bvand (bvnot $e374) (bvnot $e373))))
(let (($e376 (bvand $e359 $e375)))
(let (($e377 (bvand (bvnot $e376) (bvnot $e360))))
(let (($e378 (concat $e13 v16)))
(let (($e379 (concat (bvnot $e13) v16)))
(let (($e380 (ite (= #b1 v16) $e379 $e378)))
(let (($e381 (ite (bvult $e380 $e170) #b1 #b0)))
(let (($e382 (concat $e18 bvlambda_32_)))
(let (($e383 (concat $e382 bvlambda_33_)))
(let (($e384 (bvadd (bvnot $e22) (bvnot $e154))))
(let (($e385 (ite (= #b1 bvlambda_1_) $e384 $e154)))
(let (($e386 (bvadd (bvnot $e22) (bvnot $e304))))
(let (($e387 ((_ extract 15 15) $e302)))
(let (($e388 (bvand (bvnot $e303) $e387)))
(let (($e389 (ite (= #b1 $e388) $e386 $e304)))
(let (($e390 (bvurem $e389 $e385)))
(let (($e391 (bvadd (bvnot $e22) (bvnot $e390))))
(let (($e392 (bvand bvlambda_1_ $e388)))
(let (($e393 (ite (= #b1 $e392) $e391 $e10)))
(let (($e394 (bvadd $e154 $e390)))
(let (($e395 (bvand bvlambda_1_ (bvnot $e388))))
(let (($e396 (ite (= $e10 $e390) #b1 #b0)))
(let (($e397 (bvand (bvnot $e396) $e395)))
(let (($e398 (ite (= #b1 $e397) $e394 $e10)))
(let (($e399 (bvand (bvnot $e398) (bvnot $e393))))
(let (($e400 (bvadd $e154 $e391)))
(let (($e401 (bvand (bvnot bvlambda_1_) $e388)))
(let (($e402 (bvand $e401 (bvnot $e396))))
(let (($e403 (ite (= #b1 $e402) $e400 $e10)))
(let (($e404 (bvand (bvnot bvlambda_1_) (bvnot $e388))))
(let (($e405 (ite (= #b1 $e404) $e390 $e10)))
(let (($e406 (bvand (bvnot $e405) (bvnot $e403))))
(let (($e407 (bvand $e406 $e399)))
(let (($e408 ((_ extract 14 0) $e407)))
(let (($e409 (ite (bvult (bvnot $e408) $e383) #b1 #b0)))
(let (($e410 ((_ extract 15 15) $e407)))
(let (($e411 (bvand $e410 (bvnot $e409))))
(let (($e412 (bvand (bvnot $e411) (bvnot $e381))))
(let (($e413 (concat bvlambda_32_ bvlambda_33_)))
(let (($e414 (bvadd (bvnot $e20) (bvnot $e413))))
(let (($e415 (ite (= #b1 bvlambda_32_) $e414 $e413)))
(let (($e416 (concat (bvnot $e1) (bvnot $e141))))
(let (($e417 (concat (bvnot $e1) (bvnot bvlambda_16_))))
(let (($e418 (bvand $e417 $e416)))
(let (($e419 (bvurem (bvnot $e418) $e415)))
(let (($e420 (concat $e23 $e419)))
(let (($e421 (concat $e23 bvlambda_32_)))
(let (($e422 (concat $e421 bvlambda_33_)))
(let (($e423 (bvand $e77 (bvnot $e422))))
(let (($e424 (bvadd (bvnot $e26) $e423)))
(let (($e425 (concat $e17 $e257)))
(let (($e426 (concat (bvnot $e17) $e257)))
(let (($e427 (ite (= #b1 $e259) $e426 $e425)))
(let (($e428 (bvadd $e427 $e424)))
(let (($e429 (ite (bvult $e428 $e420) #b1 #b0)))
(let (($e430 (bvand (bvnot $e429) $e412)))
(let (($e431 (ite (bvult $e243 (bvnot $e25)) #b1 #b0)))
(let (($e432 (bvand (bvnot $e431) $e429)))
(let (($e433 (bvand (bvnot $e432) (bvnot $e430))))
(let (($e434 (bvand $e433 $e377)))
(let (($e435 (bvand (bvnot $e434) $e291)))
(let (($e436 (concat $e13 $e249)))
(let (($e437 (concat (bvnot $e13) $e249)))
(let (($e438 (ite (= #b1 $e251) $e437 $e436)))
(let (($e439 (ite (= $e21 $e438) #b1 #b0)))
(let (($e440 (concat $e15 bvlambda_32_)))
(let (($e441 (concat $e440 bvlambda_33_)))
(let (($e442 (bvand $e14 $e441)))
(let (($e443 (concat (bvnot $e13) (bvnot bvlambda_23_))))
(let (($e444 (concat $e443 (bvnot bvlambda_24_))))
(let (($e445 (concat $e444 (bvnot bvlambda_25_))))
(let (($e446 (concat (bvnot $e6) (bvnot v14))))
(let (($e447 (bvand $e446 $e445)))
(let (($e448 ((_ extract 9 0) $e447)))
(let (($e449 (ite (bvult (bvnot $e448) $e442) #b1 #b0)))
(let (($e450 ((_ extract 10 10) $e447)))
(let (($e451 (bvand $e450 (bvnot $e449))))
(let (($e452 (concat $e23 (bvnot $e451))))
(let (($e453 (bvand $e121 $e452)))
(let (($e454 (bvand (bvnot $e121) (bvnot $e452))))
(let (($e455 (bvand (bvnot $e454) (bvnot $e453))))
(let (($e456 (concat $e15 (bvnot $e455))))
(let (($e457 (bvadd (bvnot $e22) $e157)))
(let (($e458 (bvadd $e162 $e457)))
(let (($e459 (ite (bvult $e458 $e456) #b1 #b0)))
(let (($e460 (bvand (bvnot $e459) (bvnot $e439))))
(let (($e461 (bvand $e459 $e439)))
(let (($e462 (bvand (bvnot $e461) (bvnot $e460))))
(let (($e463 (ite (= $e462 $e435) #b1 #b0)))
(let (($e464 (ite (= $e12 $e249) #b1 #b0)))
(let (($e465 (ite (= (bvnot $e12) $e249) #b1 #b0)))
(let (($e466 (ite (= $e8 bvlambda_12_) #b1 #b0)))
(let (($e467 (ite (= $e9 bvlambda_11_) #b1 #b0)))
(let (($e468 (ite (= $e13 bvlambda_10_) #b1 #b0)))
(let (($e469 (bvand (bvnot bvlambda_9_) $e468)))
(let (($e470 (bvand $e469 $e467)))
(let (($e471 (bvand $e470 $e466)))
(let (($e472 (bvand $e471 $e92)))
(let (($e473 (ite (= (bvnot $e8) bvlambda_12_) #b1 #b0)))
(let (($e474 (ite (= (bvnot $e9) bvlambda_11_) #b1 #b0)))
(let (($e475 (ite (= (bvnot $e13) bvlambda_10_) #b1 #b0)))
(let (($e476 (bvand bvlambda_9_ $e475)))
(let (($e477 (bvand $e476 $e474)))
(let (($e478 (bvand $e477 $e473)))
(let (($e479 (bvand (bvnot $e92) $e478)))
(let (($e480 (ite (= $e13 bvlambda_37_) #b1 #b0)))
(let (($e481 (ite (= $e8 bvlambda_35_) #b1 #b0)))
(let (($e482 (bvand (bvnot bvlambda_34_) $e481)))
(let (($e483 (bvand (bvnot bvlambda_36_) $e482)))
(let (($e484 (bvand $e483 $e480)))
(let (($e485 (bvand (bvnot bvlambda_32_) (bvnot bvlambda_33_))))
(let (($e486 (bvand bvlambda_32_ bvlambda_33_)))
(let (($e487 (ite (= $e10 $e155) #b1 #b0)))
(let (($e488 (ite (= $e10 $e156) #b1 #b0)))
(let (($e489 (bvand $e488 $e487)))
(let (($e490 (concat $e17 bvlambda_16_)))
(let (($e491 (concat $e490 bvlambda_17_)))
(let (($e492 (concat $e491 bvlambda_18_)))
(let (($e493 (concat $e492 bvlambda_19_)))
(let (($e494 (concat bvlambda_5_ bvlambda_6_)))
(let (($e495 (concat $e494 bvlambda_7_)))
(let (($e496 (concat $e495 bvlambda_8_)))
(let (($e497 (bvand $e223 $e496)))
(let (($e498 (bvand (bvnot $e497) $e493)))
(let (($e499 (bvand $e497 (bvnot $e493))))
(let (($e500 (bvand (bvnot $e499) (bvnot $e498))))
(let (($e501 (ite (= $e21 $e500) #b1 #b0)))
(let (($e502 (ite (= $e8 $e208) #b1 #b0)))
(let (($e503 (bvand $e502 $e471)))
(let (($e504 (ite (= $e5 bvlambda_4_) #b1 #b0)))
(let (($e505 (ite (= $e13 bvlambda_2_) #b1 #b0)))
(let (($e506 (bvand (bvnot bvlambda_1_) $e505)))
(let (($e507 (bvand (bvnot bvlambda_3_) $e506)))
(let (($e508 (bvand $e507 $e504)))
(let (($e509 (ite (= (bvnot $e5) bvlambda_4_) #b1 #b0)))
(let (($e510 (ite (= (bvnot $e13) bvlambda_2_) #b1 #b0)))
(let (($e511 (bvand bvlambda_1_ $e510)))
(let (($e512 (bvand bvlambda_3_ $e511)))
(let (($e513 (bvand $e512 $e509)))
(let (($e514 (bvand (bvnot $e513) (bvnot $e508))))
(let (($e515 (bvand $e514 (bvnot $e503))))
(let (($e516 (bvand $e515 (bvnot $e501))))
(let (($e517 (bvand $e516 (bvnot $e489))))
(let (($e518 (bvand $e517 (bvnot $e486))))
(let (($e519 (bvand $e518 (bvnot $e485))))
(let (($e520 (bvand $e519 (bvnot $e484))))
(let (($e521 (bvand $e520 (bvnot $e479))))
(let (($e522 (bvand $e521 (bvnot $e472))))
(let (($e523 (bvand $e522 (bvnot $e465))))
(let (($e524 (bvand $e523 (bvnot $e464))))
(let (($e525 (bvand $e524 $e463)))
(let (($e526 (bvand $e525 (bvnot $e79))))
 (not (= $e526 #b0))))))))))))))))))))))))))))))))))))))))))))))))))))))))))))))))))))))))))))))))))))))))))))))))))))))))))))))))))))))))))))))))))))))))))))))))))))))))))))))))))))))))))))))))))))))))))))))))))))))))))))))))))))))))))))))))))))))))))))))))))))))))))))))))))))))))))))))))))))))))))))))))))))))))))))))))))))))))))))))))))))))))))))))))))))))))))))))))))))))))))))))))))))))))))))))))))))))))))))))))))))))))))))))))))))))))))))))))))))))))))))))))))))))))))))))))))))))))))))))))))))
(check-sat)
(exit)
